Minimize
  obj: x0 + x1 + x2 + x3 + x4 + x5 + x6 + x7 + x8

Subject To
  c0: x1 + x6 = 127
  c1: x0 + x2 + x4 = 13
  c2: x0 + x1 + x3 = 20
  c3: x0 + x1 + x3 + x5 = 28
  c4: x1 + x2 + x7 + x8 = 12
  c5: x1 + x2 + x6 + x7 = 138
  c6: x0 + x1 + x6 + x8 = 134
  c7: x0 + x2 + x5 + x6 + x7 = 152
  c8: x0 + x1 + x4 + x6 + x7 + x8 = 148
  c9: x0 + x1 + x3 + x6 + x7 + x8 = 157

Bounds
  x0 >= 0
  x1 >= 0
  x2 >= 0
  x3 >= 0
  x4 >= 0
  x5 >= 0
  x6 >= 0
  x7 >= 0
  x8 >= 0

Generals
  x0 x1 x2 x3 x4 x5 x6 x7 x8

End
